p cnf 100 150
1 69 0
1 32 0
1 66 0
2 81 0
2 98 0
2 10 0
3 27 0
3 5 0
3 79 0
4 46 0
4 86 0
4 9 0
5 78 0
5 59 0
6 69 0
6 60 0
6 18 0
7 45 0
7 40 0
7 38 0
8 75 0
8 24 0
8 60 0
9 82 0
9 55 0
10 23 0
10 31 0
11 96 0
11 85 0
11 61 0
12 33 0
12 22 0
12 64 0
13 18 0
13 28 0
13 76 0
14 84 0
14 62 0
14 44 0
15 20 0
15 54 0
15 75 0
16 59 0
16 33 0
16 80 0
17 19 0
17 30 0
17 47 0
18 83 0
19 56 0
19 45 0
20 28 0
20 63 0
21 87 0
21 58 0
21 29 0
22 32 0
22 23 0
23 80 0
24 55 0
24 74 0
25 53 0
25 66 0
25 33 0
26 99 0
26 47 0
26 67 0
27 31 0
27 56 0
28 98 0
29 51 0
29 49 0
30 51 0
30 47 0
31 94 0
32 84 0
34 46 0
34 56 0
34 99 0
35 40 0
35 61 0
35 99 0
36 39 0
36 95 0
36 44 0
37 92 0
37 60 0
37 69 0
38 48 0
38 93 0
39 82 0
39 65 0
40 70 0
41 100 0
41 52 0
41 45 0
42 50 0
42 96 0
42 94 0
43 86 0
43 67 0
43 92 0
44 57 0
46 65 0
48 57 0
48 62 0
49 100 0
49 97 0
50 100 0
50 76 0
51 63 0
52 95 0
52 68 0
53 62 0
53 84 0
54 61 0
54 91 0
55 98 0
57 77 0
58 79 0
58 73 0
59 72 0
63 72 0
64 97 0
64 71 0
65 74 0
66 91 0
67 68 0
68 77 0
70 90 0
70 79 0
71 87 0
71 76 0
72 95 0
73 93 0
73 94 0
74 81 0
75 86 0
77 91 0
78 82 0
78 89 0
80 90 0
81 88 0
83 85 0
83 96 0
85 92 0
87 89 0
88 97 0
88 90 0
89 93 0
g -60